NAME : A-n80-m2-Q60 
COMMENT : 
TYPE : MDVRP 
NODES : 80
DEPOTS : 2 
CAPACITY : 60
EDGE_WEIGHT_TYPE : EUC_2D 
NODE_COORD_SECTION 
1 -10 -10
2 -10 0
3 -10 10
4 0 -10
5 0 10
6 10 -10
7 10 0
8 10 10
9 -20 -20
10 -20 0
11 -20 20
12 0 -20
13 0 20
14 20 -20
15 20 0
16 20 20
17 -30 -30
18 -30 0
19 -30 30
20 0 -30
21 0 30
22 30 -30
23 30 0
24 30 30
25 -40 -40
26 -40 0
27 -40 40
28 0 -40
29 0 40
30 40 -40
31 40 0
32 40 40
33 -50 -50
34 -50 0
35 -50 50
36 0 -50
37 0 50
38 50 -50
39 50 0
40 50 50
41 100 -10
42 100 0
43 100 10
44 110 -10
45 110 10
46 120 -10
47 120 0
48 120 10
49 90 -20
50 90 0
51 90 20
52 110 -20
53 110 20
54 130 -20
55 130 0
56 130 20
57 80 -30
58 80 0
59 80 30
60 110 -30
61 110 30
62 140 -30
63 140 0
64 140 30
65 70 -40
66 70 0
67 70 40
68 110 -40
69 110 40
70 150 -40
71 150 0
72 150 40
73 60 -50
74 60 0
75 60 50
76 110 -50
77 110 50
78 160 -50
79 160 0
80 160 50
DEMAND_SECTION 
1 12
2 12
3 12
4 12
5 12
6 12
7 12
8 12
9 8
10 8
11 8
12 8
13 8
14 8
15 8
16 8
17 4
18 4
19 4
20 4
21 4
22 4
23 4
24 4
25 2
26 2
27 2
28 2
29 2
30 2
31 2
32 2
33 1
34 1
35 1
36 1
37 1
38 1
39 1
40 1
41 12
42 12
43 12
44 12
45 12
46 12
47 12
48 12
49 8
50 8
51 8
52 8
53 8
54 8
55 8
56 8
57 4
58 4
59 4
60 4
61 4
62 4
63 4
64 4
65 2
66 2
67 2
68 2
69 2
70 2
71 2
72 2
73 1
74 1
75 1
76 1
77 1
78 1
79 1
80 1
DEPOT_SECTION 
81 0 0
82 110 0
EOF 
